K = 10;

P = [ 81 92 39 46 68 67 89 67 95 83 ];

R = [ 22 26 48 50 32 15 32 28 38 33 ];

A = [ 5 3 4 2 6 3 2 5 6 4 ];

C = [ 3 6 4 2 4 3 5 2 2 4 ];

N = 6;

M = [
[ 0 6 31 43 8 45 ]
[ 6 0 30 49 24 1 ]
[ 31 30 0 38 50 6 ]
[ 43 49 38 0 10 8 ]
[ 8 24 50 10 0 29 ]
[ 45 1 6 8 29 0 ]
 ];

